(declare-fun v1 () (_ BitVec 11))
(declare-fun v5 () (_ BitVec 12))
(assert
(let (($e20 (_ bv1 10)))
(let (($e161 ((_ extract 10 0) v5)))
(let (($e162      (bvult $e161 v1   )         ))
(let (($e163 (   extract        $e161)))
(let (($e168 (bvand        $e163         $e162 )))
(let (($e170 (concat $e20 $e168)))
(let (($e171 (bvand $e161 $e170)))
(let (($e586 (ite        $e162  $e171 $e170)))
(let (($e587 ((_ extract 9 0) $e586)))
                  (bvult $e20  $e587)
                                                                                                                                                                                                                                                                                                                                                                                                                                                                                                                                                                                                                                                                                                                                                                                                                                                                                                                                                                                                                                                                                                                                                                                                                                                                                                                                                                                                                                                                                                                                                                                                                                                                                                                                                                                                                                                                                                                                                                                                                                                                                                                                                                                                                                                                                                                                                                                                       ))                                                                                                                                                                                                                                                                                                                                                                                                                              )) )    )))                                                                                                                    )                   )
